p cnf 535 1817
c p weight 214 -1 0
c p weight -214 1 0
c p weight 216 6.12323399573676603586882014729198302312846062338790031898128063403419218957424163818359375E-17 0
c p weight -216 1 0
c p weight 217 1 0
c p weight -217 1 0
c p weight 218 -1 0
c p weight -218 1 0
c p weight 220 -1 0
c p weight -220 1 0
c p weight 223 -1 0
c p weight -223 1 0
c p weight 226 -1 0
c p weight -226 1 0
c p weight 229 -1 0
c p weight -229 1 0
c p weight 232 -1 0
c p weight -232 1 0
c p weight 235 -1 0
c p weight -235 1 0
c p weight 238 -1 0
c p weight -238 1 0
c p weight 241 -1 0
c p weight -241 1 0
c p weight 244 -1 0
c p weight -244 1 0
c p weight 247 -1 0
c p weight -247 1 0
c p weight 250 -1 0
c p weight -250 1 0
c p weight 253 -1 0
c p weight -253 1 0
c p weight 256 -1 0
c p weight -256 1 0
c p weight 259 -1 0
c p weight -259 1 0
c p weight 262 -1 0
c p weight -262 1 0
c p weight 265 -1 0
c p weight -265 1 0
c p weight 268 -1 0
c p weight -268 1 0
c p weight 271 -1 0
c p weight -271 1 0
c p weight 274 -1 0
c p weight -274 1 0
c p weight 277 -1 0
c p weight -277 1 0
c p weight 280 -1 0
c p weight -280 1 0
c p weight 283 -1 0
c p weight -283 1 0
c p weight 286 -1 0
c p weight -286 1 0
c p weight 289 -1 0
c p weight -289 1 0
c p weight 292 -1 0
c p weight -292 1 0
c p weight 295 -1 0
c p weight -295 1 0
c p weight 298 -1 0
c p weight -298 1 0
c p weight 301 -1 0
c p weight -301 1 0
c p weight 304 -1 0
c p weight -304 1 0
c p weight 307 -1 0
c p weight -307 1 0
c p weight 310 -1 0
c p weight -310 1 0
c p weight 313 -1 0
c p weight -313 1 0
c p weight 316 -1 0
c p weight -316 1 0
c p weight 319 -1 0
c p weight -319 1 0
c p weight 322 -1 0
c p weight -322 1 0
c p weight 325 -1 0
c p weight -325 1 0
c p weight 328 -1 0
c p weight -328 1 0
c p weight 331 -1 0
c p weight -331 1 0
c p weight 334 -1 0
c p weight -334 1 0
c p weight 337 -1 0
c p weight -337 1 0
c p weight 340 -1 0
c p weight -340 1 0
c p weight 343 -1 0
c p weight -343 1 0
c p weight 346 -1 0
c p weight -346 1 0
c p weight 349 -1 0
c p weight -349 1 0
c p weight 352 -1 0
c p weight -352 1 0
c p weight 355 -1 0
c p weight -355 1 0
c p weight 358 -1 0
c p weight -358 1 0
c p weight 361 -1 0
c p weight -361 1 0
c p weight 364 -1 0
c p weight -364 1 0
c p weight 367 -1 0
c p weight -367 1 0
c p weight 370 -1 0
c p weight -370 1 0
c p weight 373 -1 0
c p weight -373 1 0
c p weight 376 -1 0
c p weight -376 1 0
c p weight 379 -1 0
c p weight -379 1 0
c p weight 382 -1 0
c p weight -382 1 0
c p weight 385 -1 0
c p weight -385 1 0
c p weight 388 -1 0
c p weight -388 1 0
c p weight 391 -1 0
c p weight -391 1 0
c p weight 394 -1 0
c p weight -394 1 0
c p weight 397 -1 0
c p weight -397 1 0
c p weight 400 -1 0
c p weight -400 1 0
c p weight 403 -1 0
c p weight -403 1 0
c p weight 406 -1 0
c p weight -406 1 0
c p weight 409 -1 0
c p weight -409 1 0
c p weight 412 -1 0
c p weight -412 1 0
c p weight 415 -1 0
c p weight -415 1 0
c p weight 418 -1 0
c p weight -418 1 0
c p weight 421 -1 0
c p weight -421 1 0
c p weight 424 -1 0
c p weight -424 1 0
c p weight 427 -1 0
c p weight -427 1 0
c p weight 430 -1 0
c p weight -430 1 0
c p weight 433 -1 0
c p weight -433 1 0
c p weight 436 -1 0
c p weight -436 1 0
c p weight 439 -1 0
c p weight -439 1 0
c p weight 442 -1 0
c p weight -442 1 0
c p weight 445 -1 0
c p weight -445 1 0
c p weight 448 -1 0
c p weight -448 1 0
c p weight 451 -1 0
c p weight -451 1 0
c p weight 454 -1 0
c p weight -454 1 0
c p weight 457 -1 0
c p weight -457 1 0
c p weight 460 -1 0
c p weight -460 1 0
c p weight 463 -1 0
c p weight -463 1 0
c p weight 466 -1 0
c p weight -466 1 0
c p weight 469 -1 0
c p weight -469 1 0
c p weight 472 -1 0
c p weight -472 1 0
c p weight 475 -1 0
c p weight -475 1 0
c p weight 478 -1 0
c p weight -478 1 0
c p weight 481 -1 0
c p weight -481 1 0
c p weight 484 -1 0
c p weight -484 1 0
c p weight 487 -1 0
c p weight -487 1 0
c p weight 490 -1 0
c p weight -490 1 0
c p weight 493 -1 0
c p weight -493 1 0
c p weight 496 -1 0
c p weight -496 1 0
c p weight 499 -1 0
c p weight -499 1 0
c p weight 502 -1 0
c p weight -502 1 0
c p weight 505 -1 0
c p weight -505 1 0
c p weight 508 -1 0
c p weight -508 1 0
c p weight 511 -1 0
c p weight -511 1 0
c p weight 514 -1 0
c p weight -514 1 0
c p weight 517 -1 0
c p weight -517 1 0
c p weight 520 -1 0
c p weight -520 1 0
c p weight 523 -1 0
c p weight -523 1 0
c p weight 526 -1 0
c p weight -526 1 0
c p weight 529 -1 0
c p weight -529 1 0
c p weight 532 -1 0
c p weight -532 1 0
c p weight 535 -1 0
c p weight -535 1 0
-211 0
-209 0
-207 0
-205 0
-203 0
-201 0
-199 0
-197 0
-195 0
-193 0
-191 0
-189 0
-187 0
-185 0
-183 0
-181 0
-179 0
-177 0
-175 0
-173 0
-171 0
-169 0
-167 0
-165 0
-163 0
-161 0
-159 0
-157 0
-155 0
-153 0
-151 0
-149 0
-147 0
-145 0
-143 0
-141 0
-139 0
-137 0
-135 0
-133 0
-131 0
-129 0
-127 0
-125 0
-123 0
-121 0
-119 0
-117 0
-115 0
-113 0
-111 0
-109 0
-107 0
-105 0
-103 0
-101 0
-99 0
-97 0
-95 0
-93 0
-91 0
-89 0
-87 0
-85 0
-83 0
-81 0
-79 0
-77 0
-75 0
-73 0
-71 0
-69 0
-67 0
-65 0
-63 0
-61 0
-59 0
-57 0
-55 0
-53 0
-51 0
-49 0
-47 0
-45 0
-43 0
-41 0
-39 0
-37 0
-35 0
-33 0
-31 0
-29 0
-27 0
-25 0
-23 0
-21 0
-19 0
-17 0
-15 0
-13 0
-11 0
-9 0
-7 0
-5 0
-3 0
-1 0
213 211 -212 0
213 -211 212 0
-213 211 212 0
-213 -211 -212 0
-214 211 0
-214 212 0
214 -211 -212 0
215 -211 213 0
-215 211 213 0
-216 213 0
215 -216 -211 0
-215 -216 211 0
215 216 211 -213 0
-215 216 -211 -213 0
-217 213 0
215 -217 211 0
-215 -217 -211 0
215 217 -211 -213 0
-215 217 211 -213 0
-218 215 0
-218 213 0
-218 -211 0
218 -215 211 -213 0
219 215 -213 0
219 -215 213 0
-219 215 213 0
-219 -215 -213 0
-220 215 0
-220 213 0
220 -215 -213 0
221 215 -209 0
221 -215 209 0
-221 215 209 0
-221 -215 -209 0
222 219 -210 0
222 -219 210 0
-222 219 210 0
-222 -219 -210 0
-223 215 0
-223 210 0
-223 209 -219 0
-223 -209 219 0
223 -215 209 219 -210 0
223 -215 -209 -219 -210 0
224 221 -207 0
224 -221 207 0
-224 221 207 0
-224 -221 -207 0
225 210 -208 0
225 -210 208 0
-225 210 208 0
-225 -210 -208 0
-226 221 0
-226 208 0
-226 207 -210 0
-226 -207 210 0
226 -221 207 210 -208 0
226 -221 -207 -210 -208 0
227 224 -205 0
227 -224 205 0
-227 224 205 0
-227 -224 -205 0
228 208 -206 0
228 -208 206 0
-228 208 206 0
-228 -208 -206 0
-229 224 0
-229 206 0
-229 205 -208 0
-229 -205 208 0
229 -224 205 208 -206 0
229 -224 -205 -208 -206 0
230 227 -203 0
230 -227 203 0
-230 227 203 0
-230 -227 -203 0
231 206 -204 0
231 -206 204 0
-231 206 204 0
-231 -206 -204 0
-232 227 0
-232 204 0
-232 203 -206 0
-232 -203 206 0
232 -227 203 206 -204 0
232 -227 -203 -206 -204 0
233 230 -201 0
233 -230 201 0
-233 230 201 0
-233 -230 -201 0
234 204 -202 0
234 -204 202 0
-234 204 202 0
-234 -204 -202 0
-235 230 0
-235 202 0
-235 201 -204 0
-235 -201 204 0
235 -230 201 204 -202 0
235 -230 -201 -204 -202 0
236 233 -199 0
236 -233 199 0
-236 233 199 0
-236 -233 -199 0
237 202 -200 0
237 -202 200 0
-237 202 200 0
-237 -202 -200 0
-238 233 0
-238 200 0
-238 199 -202 0
-238 -199 202 0
238 -233 199 202 -200 0
238 -233 -199 -202 -200 0
239 236 -197 0
239 -236 197 0
-239 236 197 0
-239 -236 -197 0
240 200 -198 0
240 -200 198 0
-240 200 198 0
-240 -200 -198 0
-241 236 0
-241 198 0
-241 197 -200 0
-241 -197 200 0
241 -236 197 200 -198 0
241 -236 -197 -200 -198 0
242 239 -195 0
242 -239 195 0
-242 239 195 0
-242 -239 -195 0
243 198 -196 0
243 -198 196 0
-243 198 196 0
-243 -198 -196 0
-244 239 0
-244 196 0
-244 195 -198 0
-244 -195 198 0
244 -239 195 198 -196 0
244 -239 -195 -198 -196 0
245 242 -193 0
245 -242 193 0
-245 242 193 0
-245 -242 -193 0
246 196 -194 0
246 -196 194 0
-246 196 194 0
-246 -196 -194 0
-247 242 0
-247 194 0
-247 193 -196 0
-247 -193 196 0
247 -242 193 196 -194 0
247 -242 -193 -196 -194 0
248 245 -191 0
248 -245 191 0
-248 245 191 0
-248 -245 -191 0
249 194 -192 0
249 -194 192 0
-249 194 192 0
-249 -194 -192 0
-250 245 0
-250 192 0
-250 191 -194 0
-250 -191 194 0
250 -245 191 194 -192 0
250 -245 -191 -194 -192 0
251 248 -189 0
251 -248 189 0
-251 248 189 0
-251 -248 -189 0
252 192 -190 0
252 -192 190 0
-252 192 190 0
-252 -192 -190 0
-253 248 0
-253 190 0
-253 189 -192 0
-253 -189 192 0
253 -248 189 192 -190 0
253 -248 -189 -192 -190 0
254 251 -187 0
254 -251 187 0
-254 251 187 0
-254 -251 -187 0
255 190 -188 0
255 -190 188 0
-255 190 188 0
-255 -190 -188 0
-256 251 0
-256 188 0
-256 187 -190 0
-256 -187 190 0
256 -251 187 190 -188 0
256 -251 -187 -190 -188 0
257 254 -185 0
257 -254 185 0
-257 254 185 0
-257 -254 -185 0
258 188 -186 0
258 -188 186 0
-258 188 186 0
-258 -188 -186 0
-259 254 0
-259 186 0
-259 185 -188 0
-259 -185 188 0
259 -254 185 188 -186 0
259 -254 -185 -188 -186 0
260 257 -183 0
260 -257 183 0
-260 257 183 0
-260 -257 -183 0
261 186 -184 0
261 -186 184 0
-261 186 184 0
-261 -186 -184 0
-262 257 0
-262 184 0
-262 183 -186 0
-262 -183 186 0
262 -257 183 186 -184 0
262 -257 -183 -186 -184 0
263 260 -181 0
263 -260 181 0
-263 260 181 0
-263 -260 -181 0
264 184 -182 0
264 -184 182 0
-264 184 182 0
-264 -184 -182 0
-265 260 0
-265 182 0
-265 181 -184 0
-265 -181 184 0
265 -260 181 184 -182 0
265 -260 -181 -184 -182 0
266 263 -179 0
266 -263 179 0
-266 263 179 0
-266 -263 -179 0
267 182 -180 0
267 -182 180 0
-267 182 180 0
-267 -182 -180 0
-268 263 0
-268 180 0
-268 179 -182 0
-268 -179 182 0
268 -263 179 182 -180 0
268 -263 -179 -182 -180 0
269 266 -177 0
269 -266 177 0
-269 266 177 0
-269 -266 -177 0
270 180 -178 0
270 -180 178 0
-270 180 178 0
-270 -180 -178 0
-271 266 0
-271 178 0
-271 177 -180 0
-271 -177 180 0
271 -266 177 180 -178 0
271 -266 -177 -180 -178 0
272 269 -175 0
272 -269 175 0
-272 269 175 0
-272 -269 -175 0
273 178 -176 0
273 -178 176 0
-273 178 176 0
-273 -178 -176 0
-274 269 0
-274 176 0
-274 175 -178 0
-274 -175 178 0
274 -269 175 178 -176 0
274 -269 -175 -178 -176 0
275 272 -173 0
275 -272 173 0
-275 272 173 0
-275 -272 -173 0
276 176 -174 0
276 -176 174 0
-276 176 174 0
-276 -176 -174 0
-277 272 0
-277 174 0
-277 173 -176 0
-277 -173 176 0
277 -272 173 176 -174 0
277 -272 -173 -176 -174 0
278 275 -171 0
278 -275 171 0
-278 275 171 0
-278 -275 -171 0
279 174 -172 0
279 -174 172 0
-279 174 172 0
-279 -174 -172 0
-280 275 0
-280 172 0
-280 171 -174 0
-280 -171 174 0
280 -275 171 174 -172 0
280 -275 -171 -174 -172 0
281 278 -169 0
281 -278 169 0
-281 278 169 0
-281 -278 -169 0
282 172 -170 0
282 -172 170 0
-282 172 170 0
-282 -172 -170 0
-283 278 0
-283 170 0
-283 169 -172 0
-283 -169 172 0
283 -278 169 172 -170 0
283 -278 -169 -172 -170 0
284 281 -167 0
284 -281 167 0
-284 281 167 0
-284 -281 -167 0
285 170 -168 0
285 -170 168 0
-285 170 168 0
-285 -170 -168 0
-286 281 0
-286 168 0
-286 167 -170 0
-286 -167 170 0
286 -281 167 170 -168 0
286 -281 -167 -170 -168 0
287 284 -165 0
287 -284 165 0
-287 284 165 0
-287 -284 -165 0
288 168 -166 0
288 -168 166 0
-288 168 166 0
-288 -168 -166 0
-289 284 0
-289 166 0
-289 165 -168 0
-289 -165 168 0
289 -284 165 168 -166 0
289 -284 -165 -168 -166 0
290 287 -163 0
290 -287 163 0
-290 287 163 0
-290 -287 -163 0
291 166 -164 0
291 -166 164 0
-291 166 164 0
-291 -166 -164 0
-292 287 0
-292 164 0
-292 163 -166 0
-292 -163 166 0
292 -287 163 166 -164 0
292 -287 -163 -166 -164 0
293 290 -161 0
293 -290 161 0
-293 290 161 0
-293 -290 -161 0
294 164 -162 0
294 -164 162 0
-294 164 162 0
-294 -164 -162 0
-295 290 0
-295 162 0
-295 161 -164 0
-295 -161 164 0
295 -290 161 164 -162 0
295 -290 -161 -164 -162 0
296 293 -159 0
296 -293 159 0
-296 293 159 0
-296 -293 -159 0
297 162 -160 0
297 -162 160 0
-297 162 160 0
-297 -162 -160 0
-298 293 0
-298 160 0
-298 159 -162 0
-298 -159 162 0
298 -293 159 162 -160 0
298 -293 -159 -162 -160 0
299 296 -157 0
299 -296 157 0
-299 296 157 0
-299 -296 -157 0
300 160 -158 0
300 -160 158 0
-300 160 158 0
-300 -160 -158 0
-301 296 0
-301 158 0
-301 157 -160 0
-301 -157 160 0
301 -296 157 160 -158 0
301 -296 -157 -160 -158 0
302 299 -155 0
302 -299 155 0
-302 299 155 0
-302 -299 -155 0
303 158 -156 0
303 -158 156 0
-303 158 156 0
-303 -158 -156 0
-304 299 0
-304 156 0
-304 155 -158 0
-304 -155 158 0
304 -299 155 158 -156 0
304 -299 -155 -158 -156 0
305 302 -153 0
305 -302 153 0
-305 302 153 0
-305 -302 -153 0
306 156 -154 0
306 -156 154 0
-306 156 154 0
-306 -156 -154 0
-307 302 0
-307 154 0
-307 153 -156 0
-307 -153 156 0
307 -302 153 156 -154 0
307 -302 -153 -156 -154 0
308 305 -151 0
308 -305 151 0
-308 305 151 0
-308 -305 -151 0
309 154 -152 0
309 -154 152 0
-309 154 152 0
-309 -154 -152 0
-310 305 0
-310 152 0
-310 151 -154 0
-310 -151 154 0
310 -305 151 154 -152 0
310 -305 -151 -154 -152 0
311 308 -149 0
311 -308 149 0
-311 308 149 0
-311 -308 -149 0
312 152 -150 0
312 -152 150 0
-312 152 150 0
-312 -152 -150 0
-313 308 0
-313 150 0
-313 149 -152 0
-313 -149 152 0
313 -308 149 152 -150 0
313 -308 -149 -152 -150 0
314 311 -147 0
314 -311 147 0
-314 311 147 0
-314 -311 -147 0
315 150 -148 0
315 -150 148 0
-315 150 148 0
-315 -150 -148 0
-316 311 0
-316 148 0
-316 147 -150 0
-316 -147 150 0
316 -311 147 150 -148 0
316 -311 -147 -150 -148 0
317 314 -145 0
317 -314 145 0
-317 314 145 0
-317 -314 -145 0
318 148 -146 0
318 -148 146 0
-318 148 146 0
-318 -148 -146 0
-319 314 0
-319 146 0
-319 145 -148 0
-319 -145 148 0
319 -314 145 148 -146 0
319 -314 -145 -148 -146 0
320 317 -143 0
320 -317 143 0
-320 317 143 0
-320 -317 -143 0
321 146 -144 0
321 -146 144 0
-321 146 144 0
-321 -146 -144 0
-322 317 0
-322 144 0
-322 143 -146 0
-322 -143 146 0
322 -317 143 146 -144 0
322 -317 -143 -146 -144 0
323 320 -141 0
323 -320 141 0
-323 320 141 0
-323 -320 -141 0
324 144 -142 0
324 -144 142 0
-324 144 142 0
-324 -144 -142 0
-325 320 0
-325 142 0
-325 141 -144 0
-325 -141 144 0
325 -320 141 144 -142 0
325 -320 -141 -144 -142 0
326 323 -139 0
326 -323 139 0
-326 323 139 0
-326 -323 -139 0
327 142 -140 0
327 -142 140 0
-327 142 140 0
-327 -142 -140 0
-328 323 0
-328 140 0
-328 139 -142 0
-328 -139 142 0
328 -323 139 142 -140 0
328 -323 -139 -142 -140 0
329 326 -137 0
329 -326 137 0
-329 326 137 0
-329 -326 -137 0
330 140 -138 0
330 -140 138 0
-330 140 138 0
-330 -140 -138 0
-331 326 0
-331 138 0
-331 137 -140 0
-331 -137 140 0
331 -326 137 140 -138 0
331 -326 -137 -140 -138 0
332 329 -135 0
332 -329 135 0
-332 329 135 0
-332 -329 -135 0
333 138 -136 0
333 -138 136 0
-333 138 136 0
-333 -138 -136 0
-334 329 0
-334 136 0
-334 135 -138 0
-334 -135 138 0
334 -329 135 138 -136 0
334 -329 -135 -138 -136 0
335 332 -133 0
335 -332 133 0
-335 332 133 0
-335 -332 -133 0
336 136 -134 0
336 -136 134 0
-336 136 134 0
-336 -136 -134 0
-337 332 0
-337 134 0
-337 133 -136 0
-337 -133 136 0
337 -332 133 136 -134 0
337 -332 -133 -136 -134 0
338 335 -131 0
338 -335 131 0
-338 335 131 0
-338 -335 -131 0
339 134 -132 0
339 -134 132 0
-339 134 132 0
-339 -134 -132 0
-340 335 0
-340 132 0
-340 131 -134 0
-340 -131 134 0
340 -335 131 134 -132 0
340 -335 -131 -134 -132 0
341 338 -129 0
341 -338 129 0
-341 338 129 0
-341 -338 -129 0
342 132 -130 0
342 -132 130 0
-342 132 130 0
-342 -132 -130 0
-343 338 0
-343 130 0
-343 129 -132 0
-343 -129 132 0
343 -338 129 132 -130 0
343 -338 -129 -132 -130 0
344 341 -127 0
344 -341 127 0
-344 341 127 0
-344 -341 -127 0
345 130 -128 0
345 -130 128 0
-345 130 128 0
-345 -130 -128 0
-346 341 0
-346 128 0
-346 127 -130 0
-346 -127 130 0
346 -341 127 130 -128 0
346 -341 -127 -130 -128 0
347 344 -125 0
347 -344 125 0
-347 344 125 0
-347 -344 -125 0
348 128 -126 0
348 -128 126 0
-348 128 126 0
-348 -128 -126 0
-349 344 0
-349 126 0
-349 125 -128 0
-349 -125 128 0
349 -344 125 128 -126 0
349 -344 -125 -128 -126 0
350 347 -123 0
350 -347 123 0
-350 347 123 0
-350 -347 -123 0
351 126 -124 0
351 -126 124 0
-351 126 124 0
-351 -126 -124 0
-352 347 0
-352 124 0
-352 123 -126 0
-352 -123 126 0
352 -347 123 126 -124 0
352 -347 -123 -126 -124 0
353 350 -121 0
353 -350 121 0
-353 350 121 0
-353 -350 -121 0
354 124 -122 0
354 -124 122 0
-354 124 122 0
-354 -124 -122 0
-355 350 0
-355 122 0
-355 121 -124 0
-355 -121 124 0
355 -350 121 124 -122 0
355 -350 -121 -124 -122 0
356 353 -119 0
356 -353 119 0
-356 353 119 0
-356 -353 -119 0
357 122 -120 0
357 -122 120 0
-357 122 120 0
-357 -122 -120 0
-358 353 0
-358 120 0
-358 119 -122 0
-358 -119 122 0
358 -353 119 122 -120 0
358 -353 -119 -122 -120 0
359 356 -117 0
359 -356 117 0
-359 356 117 0
-359 -356 -117 0
360 120 -118 0
360 -120 118 0
-360 120 118 0
-360 -120 -118 0
-361 356 0
-361 118 0
-361 117 -120 0
-361 -117 120 0
361 -356 117 120 -118 0
361 -356 -117 -120 -118 0
362 359 -115 0
362 -359 115 0
-362 359 115 0
-362 -359 -115 0
363 118 -116 0
363 -118 116 0
-363 118 116 0
-363 -118 -116 0
-364 359 0
-364 116 0
-364 115 -118 0
-364 -115 118 0
364 -359 115 118 -116 0
364 -359 -115 -118 -116 0
365 362 -113 0
365 -362 113 0
-365 362 113 0
-365 -362 -113 0
366 116 -114 0
366 -116 114 0
-366 116 114 0
-366 -116 -114 0
-367 362 0
-367 114 0
-367 113 -116 0
-367 -113 116 0
367 -362 113 116 -114 0
367 -362 -113 -116 -114 0
368 365 -111 0
368 -365 111 0
-368 365 111 0
-368 -365 -111 0
369 114 -112 0
369 -114 112 0
-369 114 112 0
-369 -114 -112 0
-370 365 0
-370 112 0
-370 111 -114 0
-370 -111 114 0
370 -365 111 114 -112 0
370 -365 -111 -114 -112 0
371 368 -109 0
371 -368 109 0
-371 368 109 0
-371 -368 -109 0
372 112 -110 0
372 -112 110 0
-372 112 110 0
-372 -112 -110 0
-373 368 0
-373 110 0
-373 109 -112 0
-373 -109 112 0
373 -368 109 112 -110 0
373 -368 -109 -112 -110 0
374 371 -107 0
374 -371 107 0
-374 371 107 0
-374 -371 -107 0
375 110 -108 0
375 -110 108 0
-375 110 108 0
-375 -110 -108 0
-376 371 0
-376 108 0
-376 107 -110 0
-376 -107 110 0
376 -371 107 110 -108 0
376 -371 -107 -110 -108 0
377 374 -105 0
377 -374 105 0
-377 374 105 0
-377 -374 -105 0
378 108 -106 0
378 -108 106 0
-378 108 106 0
-378 -108 -106 0
-379 374 0
-379 106 0
-379 105 -108 0
-379 -105 108 0
379 -374 105 108 -106 0
379 -374 -105 -108 -106 0
380 377 -103 0
380 -377 103 0
-380 377 103 0
-380 -377 -103 0
381 106 -104 0
381 -106 104 0
-381 106 104 0
-381 -106 -104 0
-382 377 0
-382 104 0
-382 103 -106 0
-382 -103 106 0
382 -377 103 106 -104 0
382 -377 -103 -106 -104 0
383 380 -101 0
383 -380 101 0
-383 380 101 0
-383 -380 -101 0
384 104 -102 0
384 -104 102 0
-384 104 102 0
-384 -104 -102 0
-385 380 0
-385 102 0
-385 101 -104 0
-385 -101 104 0
385 -380 101 104 -102 0
385 -380 -101 -104 -102 0
386 383 -99 0
386 -383 99 0
-386 383 99 0
-386 -383 -99 0
387 102 -100 0
387 -102 100 0
-387 102 100 0
-387 -102 -100 0
-388 383 0
-388 100 0
-388 99 -102 0
-388 -99 102 0
388 -383 99 102 -100 0
388 -383 -99 -102 -100 0
389 386 -97 0
389 -386 97 0
-389 386 97 0
-389 -386 -97 0
390 100 -98 0
390 -100 98 0
-390 100 98 0
-390 -100 -98 0
-391 386 0
-391 98 0
-391 97 -100 0
-391 -97 100 0
391 -386 97 100 -98 0
391 -386 -97 -100 -98 0
392 389 -95 0
392 -389 95 0
-392 389 95 0
-392 -389 -95 0
393 98 -96 0
393 -98 96 0
-393 98 96 0
-393 -98 -96 0
-394 389 0
-394 96 0
-394 95 -98 0
-394 -95 98 0
394 -389 95 98 -96 0
394 -389 -95 -98 -96 0
395 392 -93 0
395 -392 93 0
-395 392 93 0
-395 -392 -93 0
396 96 -94 0
396 -96 94 0
-396 96 94 0
-396 -96 -94 0
-397 392 0
-397 94 0
-397 93 -96 0
-397 -93 96 0
397 -392 93 96 -94 0
397 -392 -93 -96 -94 0
398 395 -91 0
398 -395 91 0
-398 395 91 0
-398 -395 -91 0
399 94 -92 0
399 -94 92 0
-399 94 92 0
-399 -94 -92 0
-400 395 0
-400 92 0
-400 91 -94 0
-400 -91 94 0
400 -395 91 94 -92 0
400 -395 -91 -94 -92 0
401 398 -89 0
401 -398 89 0
-401 398 89 0
-401 -398 -89 0
402 92 -90 0
402 -92 90 0
-402 92 90 0
-402 -92 -90 0
-403 398 0
-403 90 0
-403 89 -92 0
-403 -89 92 0
403 -398 89 92 -90 0
403 -398 -89 -92 -90 0
404 401 -87 0
404 -401 87 0
-404 401 87 0
-404 -401 -87 0
405 90 -88 0
405 -90 88 0
-405 90 88 0
-405 -90 -88 0
-406 401 0
-406 88 0
-406 87 -90 0
-406 -87 90 0
406 -401 87 90 -88 0
406 -401 -87 -90 -88 0
407 404 -85 0
407 -404 85 0
-407 404 85 0
-407 -404 -85 0
408 88 -86 0
408 -88 86 0
-408 88 86 0
-408 -88 -86 0
-409 404 0
-409 86 0
-409 85 -88 0
-409 -85 88 0
409 -404 85 88 -86 0
409 -404 -85 -88 -86 0
410 407 -83 0
410 -407 83 0
-410 407 83 0
-410 -407 -83 0
411 86 -84 0
411 -86 84 0
-411 86 84 0
-411 -86 -84 0
-412 407 0
-412 84 0
-412 83 -86 0
-412 -83 86 0
412 -407 83 86 -84 0
412 -407 -83 -86 -84 0
413 410 -81 0
413 -410 81 0
-413 410 81 0
-413 -410 -81 0
414 84 -82 0
414 -84 82 0
-414 84 82 0
-414 -84 -82 0
-415 410 0
-415 82 0
-415 81 -84 0
-415 -81 84 0
415 -410 81 84 -82 0
415 -410 -81 -84 -82 0
416 413 -79 0
416 -413 79 0
-416 413 79 0
-416 -413 -79 0
417 82 -80 0
417 -82 80 0
-417 82 80 0
-417 -82 -80 0
-418 413 0
-418 80 0
-418 79 -82 0
-418 -79 82 0
418 -413 79 82 -80 0
418 -413 -79 -82 -80 0
419 416 -77 0
419 -416 77 0
-419 416 77 0
-419 -416 -77 0
420 80 -78 0
420 -80 78 0
-420 80 78 0
-420 -80 -78 0
-421 416 0
-421 78 0
-421 77 -80 0
-421 -77 80 0
421 -416 77 80 -78 0
421 -416 -77 -80 -78 0
422 419 -75 0
422 -419 75 0
-422 419 75 0
-422 -419 -75 0
423 78 -76 0
423 -78 76 0
-423 78 76 0
-423 -78 -76 0
-424 419 0
-424 76 0
-424 75 -78 0
-424 -75 78 0
424 -419 75 78 -76 0
424 -419 -75 -78 -76 0
425 422 -73 0
425 -422 73 0
-425 422 73 0
-425 -422 -73 0
426 76 -74 0
426 -76 74 0
-426 76 74 0
-426 -76 -74 0
-427 422 0
-427 74 0
-427 73 -76 0
-427 -73 76 0
427 -422 73 76 -74 0
427 -422 -73 -76 -74 0
428 425 -71 0
428 -425 71 0
-428 425 71 0
-428 -425 -71 0
429 74 -72 0
429 -74 72 0
-429 74 72 0
-429 -74 -72 0
-430 425 0
-430 72 0
-430 71 -74 0
-430 -71 74 0
430 -425 71 74 -72 0
430 -425 -71 -74 -72 0
431 428 -69 0
431 -428 69 0
-431 428 69 0
-431 -428 -69 0
432 72 -70 0
432 -72 70 0
-432 72 70 0
-432 -72 -70 0
-433 428 0
-433 70 0
-433 69 -72 0
-433 -69 72 0
433 -428 69 72 -70 0
433 -428 -69 -72 -70 0
434 431 -67 0
434 -431 67 0
-434 431 67 0
-434 -431 -67 0
435 70 -68 0
435 -70 68 0
-435 70 68 0
-435 -70 -68 0
-436 431 0
-436 68 0
-436 67 -70 0
-436 -67 70 0
436 -431 67 70 -68 0
436 -431 -67 -70 -68 0
437 434 -65 0
437 -434 65 0
-437 434 65 0
-437 -434 -65 0
438 68 -66 0
438 -68 66 0
-438 68 66 0
-438 -68 -66 0
-439 434 0
-439 66 0
-439 65 -68 0
-439 -65 68 0
439 -434 65 68 -66 0
439 -434 -65 -68 -66 0
440 437 -63 0
440 -437 63 0
-440 437 63 0
-440 -437 -63 0
441 66 -64 0
441 -66 64 0
-441 66 64 0
-441 -66 -64 0
-442 437 0
-442 64 0
-442 63 -66 0
-442 -63 66 0
442 -437 63 66 -64 0
442 -437 -63 -66 -64 0
443 440 -61 0
443 -440 61 0
-443 440 61 0
-443 -440 -61 0
444 64 -62 0
444 -64 62 0
-444 64 62 0
-444 -64 -62 0
-445 440 0
-445 62 0
-445 61 -64 0
-445 -61 64 0
445 -440 61 64 -62 0
445 -440 -61 -64 -62 0
446 443 -59 0
446 -443 59 0
-446 443 59 0
-446 -443 -59 0
447 62 -60 0
447 -62 60 0
-447 62 60 0
-447 -62 -60 0
-448 443 0
-448 60 0
-448 59 -62 0
-448 -59 62 0
448 -443 59 62 -60 0
448 -443 -59 -62 -60 0
449 446 -57 0
449 -446 57 0
-449 446 57 0
-449 -446 -57 0
450 60 -58 0
450 -60 58 0
-450 60 58 0
-450 -60 -58 0
-451 446 0
-451 58 0
-451 57 -60 0
-451 -57 60 0
451 -446 57 60 -58 0
451 -446 -57 -60 -58 0
452 449 -55 0
452 -449 55 0
-452 449 55 0
-452 -449 -55 0
453 58 -56 0
453 -58 56 0
-453 58 56 0
-453 -58 -56 0
-454 449 0
-454 56 0
-454 55 -58 0
-454 -55 58 0
454 -449 55 58 -56 0
454 -449 -55 -58 -56 0
455 452 -53 0
455 -452 53 0
-455 452 53 0
-455 -452 -53 0
456 56 -54 0
456 -56 54 0
-456 56 54 0
-456 -56 -54 0
-457 452 0
-457 54 0
-457 53 -56 0
-457 -53 56 0
457 -452 53 56 -54 0
457 -452 -53 -56 -54 0
458 455 -51 0
458 -455 51 0
-458 455 51 0
-458 -455 -51 0
459 54 -52 0
459 -54 52 0
-459 54 52 0
-459 -54 -52 0
-460 455 0
-460 52 0
-460 51 -54 0
-460 -51 54 0
460 -455 51 54 -52 0
460 -455 -51 -54 -52 0
461 458 -49 0
461 -458 49 0
-461 458 49 0
-461 -458 -49 0
462 52 -50 0
462 -52 50 0
-462 52 50 0
-462 -52 -50 0
-463 458 0
-463 50 0
-463 49 -52 0
-463 -49 52 0
463 -458 49 52 -50 0
463 -458 -49 -52 -50 0
464 461 -47 0
464 -461 47 0
-464 461 47 0
-464 -461 -47 0
465 50 -48 0
465 -50 48 0
-465 50 48 0
-465 -50 -48 0
-466 461 0
-466 48 0
-466 47 -50 0
-466 -47 50 0
466 -461 47 50 -48 0
466 -461 -47 -50 -48 0
467 464 -45 0
467 -464 45 0
-467 464 45 0
-467 -464 -45 0
468 48 -46 0
468 -48 46 0
-468 48 46 0
-468 -48 -46 0
-469 464 0
-469 46 0
-469 45 -48 0
-469 -45 48 0
469 -464 45 48 -46 0
469 -464 -45 -48 -46 0
470 467 -43 0
470 -467 43 0
-470 467 43 0
-470 -467 -43 0
471 46 -44 0
471 -46 44 0
-471 46 44 0
-471 -46 -44 0
-472 467 0
-472 44 0
-472 43 -46 0
-472 -43 46 0
472 -467 43 46 -44 0
472 -467 -43 -46 -44 0
473 470 -41 0
473 -470 41 0
-473 470 41 0
-473 -470 -41 0
474 44 -42 0
474 -44 42 0
-474 44 42 0
-474 -44 -42 0
-475 470 0
-475 42 0
-475 41 -44 0
-475 -41 44 0
475 -470 41 44 -42 0
475 -470 -41 -44 -42 0
476 473 -39 0
476 -473 39 0
-476 473 39 0
-476 -473 -39 0
477 42 -40 0
477 -42 40 0
-477 42 40 0
-477 -42 -40 0
-478 473 0
-478 40 0
-478 39 -42 0
-478 -39 42 0
478 -473 39 42 -40 0
478 -473 -39 -42 -40 0
479 476 -37 0
479 -476 37 0
-479 476 37 0
-479 -476 -37 0
480 40 -38 0
480 -40 38 0
-480 40 38 0
-480 -40 -38 0
-481 476 0
-481 38 0
-481 37 -40 0
-481 -37 40 0
481 -476 37 40 -38 0
481 -476 -37 -40 -38 0
482 479 -35 0
482 -479 35 0
-482 479 35 0
-482 -479 -35 0
483 38 -36 0
483 -38 36 0
-483 38 36 0
-483 -38 -36 0
-484 479 0
-484 36 0
-484 35 -38 0
-484 -35 38 0
484 -479 35 38 -36 0
484 -479 -35 -38 -36 0
485 482 -33 0
485 -482 33 0
-485 482 33 0
-485 -482 -33 0
486 36 -34 0
486 -36 34 0
-486 36 34 0
-486 -36 -34 0
-487 482 0
-487 34 0
-487 33 -36 0
-487 -33 36 0
487 -482 33 36 -34 0
487 -482 -33 -36 -34 0
488 485 -31 0
488 -485 31 0
-488 485 31 0
-488 -485 -31 0
489 34 -32 0
489 -34 32 0
-489 34 32 0
-489 -34 -32 0
-490 485 0
-490 32 0
-490 31 -34 0
-490 -31 34 0
490 -485 31 34 -32 0
490 -485 -31 -34 -32 0
491 488 -29 0
491 -488 29 0
-491 488 29 0
-491 -488 -29 0
492 32 -30 0
492 -32 30 0
-492 32 30 0
-492 -32 -30 0
-493 488 0
-493 30 0
-493 29 -32 0
-493 -29 32 0
493 -488 29 32 -30 0
493 -488 -29 -32 -30 0
494 491 -27 0
494 -491 27 0
-494 491 27 0
-494 -491 -27 0
495 30 -28 0
495 -30 28 0
-495 30 28 0
-495 -30 -28 0
-496 491 0
-496 28 0
-496 27 -30 0
-496 -27 30 0
496 -491 27 30 -28 0
496 -491 -27 -30 -28 0
497 494 -25 0
497 -494 25 0
-497 494 25 0
-497 -494 -25 0
498 28 -26 0
498 -28 26 0
-498 28 26 0
-498 -28 -26 0
-499 494 0
-499 26 0
-499 25 -28 0
-499 -25 28 0
499 -494 25 28 -26 0
499 -494 -25 -28 -26 0
500 497 -23 0
500 -497 23 0
-500 497 23 0
-500 -497 -23 0
501 26 -24 0
501 -26 24 0
-501 26 24 0
-501 -26 -24 0
-502 497 0
-502 24 0
-502 23 -26 0
-502 -23 26 0
502 -497 23 26 -24 0
502 -497 -23 -26 -24 0
503 500 -21 0
503 -500 21 0
-503 500 21 0
-503 -500 -21 0
504 24 -22 0
504 -24 22 0
-504 24 22 0
-504 -24 -22 0
-505 500 0
-505 22 0
-505 21 -24 0
-505 -21 24 0
505 -500 21 24 -22 0
505 -500 -21 -24 -22 0
506 503 -19 0
506 -503 19 0
-506 503 19 0
-506 -503 -19 0
507 22 -20 0
507 -22 20 0
-507 22 20 0
-507 -22 -20 0
-508 503 0
-508 20 0
-508 19 -22 0
-508 -19 22 0
508 -503 19 22 -20 0
508 -503 -19 -22 -20 0
509 506 -17 0
509 -506 17 0
-509 506 17 0
-509 -506 -17 0
510 20 -18 0
510 -20 18 0
-510 20 18 0
-510 -20 -18 0
-511 506 0
-511 18 0
-511 17 -20 0
-511 -17 20 0
511 -506 17 20 -18 0
511 -506 -17 -20 -18 0
512 509 -15 0
512 -509 15 0
-512 509 15 0
-512 -509 -15 0
513 18 -16 0
513 -18 16 0
-513 18 16 0
-513 -18 -16 0
-514 509 0
-514 16 0
-514 15 -18 0
-514 -15 18 0
514 -509 15 18 -16 0
514 -509 -15 -18 -16 0
515 512 -13 0
515 -512 13 0
-515 512 13 0
-515 -512 -13 0
516 16 -14 0
516 -16 14 0
-516 16 14 0
-516 -16 -14 0
-517 512 0
-517 14 0
-517 13 -16 0
-517 -13 16 0
517 -512 13 16 -14 0
517 -512 -13 -16 -14 0
518 515 -11 0
518 -515 11 0
-518 515 11 0
-518 -515 -11 0
519 14 -12 0
519 -14 12 0
-519 14 12 0
-519 -14 -12 0
-520 515 0
-520 12 0
-520 11 -14 0
-520 -11 14 0
520 -515 11 14 -12 0
520 -515 -11 -14 -12 0
521 518 -9 0
521 -518 9 0
-521 518 9 0
-521 -518 -9 0
522 12 -10 0
522 -12 10 0
-522 12 10 0
-522 -12 -10 0
-523 518 0
-523 10 0
-523 9 -12 0
-523 -9 12 0
523 -518 9 12 -10 0
523 -518 -9 -12 -10 0
524 521 -7 0
524 -521 7 0
-524 521 7 0
-524 -521 -7 0
525 10 -8 0
525 -10 8 0
-525 10 8 0
-525 -10 -8 0
-526 521 0
-526 8 0
-526 7 -10 0
-526 -7 10 0
526 -521 7 10 -8 0
526 -521 -7 -10 -8 0
527 524 -5 0
527 -524 5 0
-527 524 5 0
-527 -524 -5 0
528 8 -6 0
528 -8 6 0
-528 8 6 0
-528 -8 -6 0
-529 524 0
-529 6 0
-529 5 -8 0
-529 -5 8 0
529 -524 5 8 -6 0
529 -524 -5 -8 -6 0
530 527 -3 0
530 -527 3 0
-530 527 3 0
-530 -527 -3 0
531 6 -4 0
531 -6 4 0
-531 6 4 0
-531 -6 -4 0
-532 527 0
-532 4 0
-532 3 -6 0
-532 -3 6 0
532 -527 3 6 -4 0
532 -527 -3 -6 -4 0
533 530 -1 0
533 -530 1 0
-533 530 1 0
-533 -530 -1 0
534 4 -2 0
534 -4 2 0
-534 4 2 0
-534 -4 -2 0
-535 530 0
-535 2 0
-535 1 -4 0
-535 -1 4 0
535 -530 1 4 -2 0
535 -530 -1 -4 -2 0
-533 0
-530 0
-534 0
-527 0
-531 0
-524 0
-528 0
-521 0
-525 0
-518 0
-522 0
-515 0
-519 0
-512 0
-516 0
-509 0
-513 0
-506 0
-510 0
-503 0
-507 0
-500 0
-504 0
-497 0
-501 0
-494 0
-498 0
-491 0
-495 0
-488 0
-492 0
-485 0
-489 0
-482 0
-486 0
-479 0
-483 0
-476 0
-480 0
-473 0
-477 0
-470 0
-474 0
-467 0
-471 0
-464 0
-468 0
-461 0
-465 0
-458 0
-462 0
-455 0
-459 0
-452 0
-456 0
-449 0
-453 0
-446 0
-450 0
-443 0
-447 0
-440 0
-444 0
-437 0
-441 0
-434 0
-438 0
-431 0
-435 0
-428 0
-432 0
-425 0
-429 0
-422 0
-426 0
-419 0
-423 0
-416 0
-420 0
-413 0
-417 0
-410 0
-414 0
-407 0
-411 0
-404 0
-408 0
-401 0
-405 0
-398 0
-402 0
-395 0
-399 0
-392 0
-396 0
-389 0
-393 0
-386 0
-390 0
-383 0
-387 0
-380 0
-384 0
-377 0
-381 0
-374 0
-378 0
-371 0
-375 0
-368 0
-372 0
-365 0
-369 0
-362 0
-366 0
-359 0
-363 0
-356 0
-360 0
-353 0
-357 0
-350 0
-354 0
-347 0
-351 0
-344 0
-348 0
-341 0
-345 0
-338 0
-342 0
-335 0
-339 0
-332 0
-336 0
-329 0
-333 0
-326 0
-330 0
-323 0
-327 0
-320 0
-324 0
-317 0
-321 0
-314 0
-318 0
-311 0
-315 0
-308 0
-312 0
-305 0
-309 0
-302 0
-306 0
-299 0
-303 0
-296 0
-300 0
-293 0
-297 0
-290 0
-294 0
-287 0
-291 0
-284 0
-288 0
-281 0
-285 0
-278 0
-282 0
-275 0
-279 0
-272 0
-276 0
-269 0
-273 0
-266 0
-270 0
-263 0
-267 0
-260 0
-264 0
-257 0
-261 0
-254 0
-258 0
-251 0
-255 0
-248 0
-252 0
-245 0
-249 0
-242 0
-246 0
-239 0
-243 0
-236 0
-240 0
-233 0
-237 0
-230 0
-234 0
-227 0
-231 0
-224 0
-228 0
-221 0
-225 0
-215 0
-222 0
